
Gurobi 9.5.2 (mac64[arm]) logging started Mon Apr 24 17:22:26 2023

Set parameter LogFile to value "Java/output/iterative_model/scenario_seed_4_nJob_40_machineCount_1/mip_increment_2/log.txt"
Gurobi Optimizer version 9.5.2 build v9.5.2rc0 (mac64[arm])
Thread count: 8 physical cores, 8 logical processors, using up to 8 threads
Optimize a model with 997 rows, 6622 columns and 45563 nonzeros
Model fingerprint: 0xee467de9
Variable types: 0 continuous, 6622 integer (6622 binary)
Coefficient statistics:
  Matrix range     [1e+00, 3e+02]
  Objective range  [2e+01, 9e+06]
  Bounds range     [1e+00, 1e+00]
  RHS range        [1e+00, 1e+00]
Found heuristic solution: objective 5.393139e+07
Presolve removed 38 rows and 587 columns
Presolve time: 0.06s
Presolved: 959 rows, 6035 columns, 39842 nonzeros
Variable types: 0 continuous, 6035 integer (6023 binary)
Found heuristic solution: objective 4.027331e+07

Root relaxation: objective 1.105501e+04, 1634 iterations, 0.05 seconds (0.09 work units)

    Nodes    |    Current Node    |     Objective Bounds      |     Work
 Expl Unexpl |  Obj  Depth IntInf | Incumbent    BestBd   Gap | It/Node Time

     0     0 11055.0122    0  104 4.0273e+07 11055.0122   100%     -    0s
H    0     0                    1.831197e+07 11055.0122   100%     -    0s
H    0     0                    1.485072e+07 11094.9320   100%     -    0s
H    0     0                    9038784.0000 11094.9320   100%     -    0s
     0     0 11094.9320    0  169 9038784.00 11094.9320   100%     -    0s
H    0     0                    9038720.0000 11094.9320   100%     -    0s
     0     0 11094.9341    0  171 9038720.00 11094.9341   100%     -    0s
     0     0 11120.0831    0  198 9038720.00 11120.0831   100%     -    0s
H    0     0                    7942720.0000 11120.3857   100%     -    0s
     0     0 11120.3857    0  194 7942720.00 11120.3857   100%     -    0s
     0     0 11120.3857    0  194 7942720.00 11120.3857   100%     -    0s
H    0     0                    255584.00000 11120.3857  95.6%     -    0s
     0     0 11148.3951    0  207 255584.000 11148.3951  95.6%     -    0s
H    0     0                    236416.00000 11148.3951  95.3%     -    0s
H    0     0                    91648.000000 11148.3951  87.8%     -    0s
     0     0 11148.3951    0   96 91648.0000 11148.3951  87.8%     -    0s
H    0     0                    91584.000000 11148.3951  87.8%     -    0s
H    0     0                    91552.000000 11148.3951  87.8%     -    0s
     0     0 11148.3951    0  196 91552.0000 11148.3951  87.8%     -    0s
H    0     0                    55136.000000 11148.3951  79.8%     -    0s
     0     0 11148.3951    0  204 55136.0000 11148.3951  79.8%     -    0s
     0     0 11151.8007    0  187 55136.0000 11151.8007  79.8%     -    0s
     0     0 11151.8503    0  186 55136.0000 11151.8503  79.8%     -    0s
H    0     0                    55104.000000 11151.8503  79.8%     -    0s
     0     0 11192.5555    0  228 55104.0000 11192.5555  79.7%     -    0s
H    0     0                    55008.000000 11192.5555  79.7%     -    0s
     0     0 11196.3783    0  241 55008.0000 11196.3783  79.6%     -    0s
     0     0 11196.8201    0  238 55008.0000 11196.8201  79.6%     -    0s
     0     0 11199.0485    0  252 55008.0000 11199.0485  79.6%     -    0s
     0     0 11199.2404    0  252 55008.0000 11199.2404  79.6%     -    0s
     0     0 11199.2404    0  255 55008.0000 11199.2404  79.6%     -    0s
H    0     0                    54912.000000 11199.2404  79.6%     -    1s
     0     0 11241.3014    0  249 54912.0000 11241.3014  79.5%     -    1s
H    0     0                    54848.000000 11241.3014  79.5%     -    1s
     0     0 11243.5858    0  251 54848.0000 11243.5858  79.5%     -    1s
     0     0 11244.0772    0  252 54848.0000 11244.0772  79.5%     -    1s
     0     0 11244.2970    0  253 54848.0000 11244.2970  79.5%     -    1s
     0     0 11244.3292    0  255 54848.0000 11244.3292  79.5%     -    1s
H    0     0                    54656.000000 11244.3292  79.4%     -    1s
     0     0 11264.5048    0  276 54656.0000 11264.5048  79.4%     -    1s
H    0     0                    54592.000000 11264.5048  79.4%     -    1s
H    0     0                    15936.000000 11264.5048  29.3%     -    1s
     0     0 11269.9338    0  298 15936.0000 11269.9338  29.3%     -    1s
H    0     0                    13344.000000 11269.9338  15.5%     -    1s
     0     0 11275.7691    0  304 13344.0000 11275.7691  15.5%     -    1s
     0     0 11277.4882    0  306 13344.0000 11277.4882  15.5%     -    1s
     0     0 11277.8946    0  314 13344.0000 11277.8946  15.5%     -    1s
     0     0 11278.0074    0  311 13344.0000 11278.0074  15.5%     -    1s
     0     0 11289.1529    0  305 13344.0000 11289.1529  15.4%     -    1s
     0     0 11291.4341    0  321 13344.0000 11291.4341  15.4%     -    1s
     0     0 11292.7664    0  325 13344.0000 11292.7664  15.4%     -    1s
     0     0 11293.4676    0  332 13344.0000 11293.4676  15.4%     -    1s
H    0     0                    13216.000000 11293.4676  14.5%     -    1s
H    0     0                    12832.000000 11293.4676  12.0%     -    1s
     0     0 11293.6027    0  337 12832.0000 11293.6027  12.0%     -    1s
     0     0 11302.0637    0  332 12832.0000 11302.0637  11.9%     -    1s
     0     0 11305.1459    0  334 12832.0000 11305.1459  11.9%     -    1s
     0     0 11306.2791    0  337 12832.0000 11306.2791  11.9%     -    1s
     0     0 11306.6195    0  340 12832.0000 11306.6195  11.9%     -    1s
     0     0 11306.6284    0  340 12832.0000 11306.6284  11.9%     -    1s
     0     0 11311.8075    0  340 12832.0000 11311.8075  11.8%     -    1s
     0     0 11313.4316    0  353 12832.0000 11313.4316  11.8%     -    1s
     0     0 11315.3103    0  351 12832.0000 11315.3103  11.8%     -    1s
     0     0 11315.6647    0  353 12832.0000 11315.6647  11.8%     -    1s
     0     0 11316.1237    0  358 12832.0000 11316.1237  11.8%     -    1s
     0     0 11316.1487    0  360 12832.0000 11316.1487  11.8%     -    1s
     0     0 11320.1856    0  352 12832.0000 11320.1856  11.8%     -    2s
     0     0 11320.1856    0  106 12832.0000 11320.1856  11.8%     -    2s
     0     0 11320.1856    0  214 12832.0000 11320.1856  11.8%     -    2s
     0     0 11320.1856    0  253 12832.0000 11320.1856  11.8%     -    2s
     0     0 11320.1856    0  283 12832.0000 11320.1856  11.8%     -    2s
     0     0 11323.8885    0  308 12832.0000 11323.8885  11.8%     -    2s
     0     0 11328.6130    0  306 12832.0000 11328.6130  11.7%     -    2s
     0     0 11329.9286    0  304 12832.0000 11329.9286  11.7%     -    2s
     0     0 11329.9286    0  305 12832.0000 11329.9286  11.7%     -    2s
     0     0 11335.2589    0  314 12832.0000 11335.2589  11.7%     -    2s
     0     0 11336.0984    0  329 12832.0000 11336.0984  11.7%     -    2s
     0     0 11336.1618    0  336 12832.0000 11336.1618  11.7%     -    2s
     0     0 11340.9058    0  338 12832.0000 11340.9058  11.6%     -    2s
     0     0 11342.8420    0  337 12832.0000 11342.8420  11.6%     -    2s
     0     0 11343.1735    0  338 12832.0000 11343.1735  11.6%     -    2s
     0     0 11346.8231    0  353 12832.0000 11346.8231  11.6%     -    2s
     0     0 11347.7848    0  347 12832.0000 11347.7848  11.6%     -    2s
     0     0 11347.8687    0  350 12832.0000 11347.8687  11.6%     -    2s
     0     0 11350.3358    0  335 12832.0000 11350.3358  11.5%     -    2s
     0     0 11350.3358    0  335 12832.0000 11350.3358  11.5%     -    2s
     0     2 11350.4622    0  335 12832.0000 11350.4622  11.5%     -    2s
H  184   173                    12800.000000 11382.4581  11.1%   491    4s
H  216   205                    12704.000000 11382.4581  10.4%   467    4s
H  224   205                    12576.000000 11382.4581  9.49%   469    4s
   282   265 11611.4772   22  227 12576.0000 11382.4581  9.49%   442    5s
H  656   501                    12448.000000 11395.0501  8.46%   340    6s
H  658   466                    12128.000000 11395.0501  6.04%   341    6s
  1489   818 11801.7621   16  426 12128.0000 11406.3367  5.95%   312   10s
H 1596   814                    11968.000000 11492.1346  3.98%   342   13s
H 1634   780                    11872.000000 11492.1346  3.20%   348   13s
  1863   747 11579.8481   16  322 11872.0000 11521.0875  2.96%   357   15s
  2778   591 11773.8083   20  301 11872.0000 11645.2727  1.91%   370   20s

Cutting planes:
  Gomory: 6
  Cover: 25
  Clique: 107
  MIR: 337
  StrongCG: 116
  Flow cover: 90
  GUB cover: 90
  Zero half: 16
  Mod-K: 4
  RLT: 2
  Relax-and-lift: 4

Explored 4327 nodes (1497667 simplex iterations) in 23.81 seconds (61.47 work units)
Thread count was 8 (of 8 available processors)

Solution count 10: 11872 11968 12128 ... 13344

Optimal solution found (tolerance 1.00e-04)
Best objective 1.187200000000e+04, best bound 1.187200000000e+04, gap 0.0000%

Gurobi 9.5.2 (mac64[arm]) logging started Mon Apr 24 17:22:50 2023

Set parameter LogFile to value "Java/output/iterative_model/scenario_seed_4_nJob_40_machineCount_1/mip_increment_2/log.txt"
Gurobi Optimizer version 9.5.2 build v9.5.2rc0 (mac64[arm])
Thread count: 8 physical cores, 8 logical processors, using up to 8 threads
Optimize a model with 989 rows, 4364 columns and 33926 nonzeros
Model fingerprint: 0xb7c84014
Variable types: 0 continuous, 4364 integer (4364 binary)
Coefficient statistics:
  Matrix range     [1e+00, 3e+02]
  Objective range  [4e+02, 1e+06]
  Bounds range     [1e+00, 1e+00]
  RHS range        [1e+00, 1e+00]
Found heuristic solution: objective 3393684.0000
Presolve removed 275 rows and 375 columns
Presolve time: 0.04s
Presolved: 714 rows, 3989 columns, 30387 nonzeros
Variable types: 0 continuous, 3989 integer (3983 binary)
Found heuristic solution: objective 3273788.0000

Root relaxation: objective 7.394203e+03, 2358 iterations, 0.07 seconds (0.13 work units)

    Nodes    |    Current Node    |     Objective Bounds      |     Work
 Expl Unexpl |  Obj  Depth IntInf | Incumbent    BestBd   Gap | It/Node Time

     0     0 7394.20334    0  125 3273788.00 7394.20334   100%     -    0s
H    0     0                    1820004.0000 7394.20334   100%     -    0s
H    0     0                    1652964.0000 7394.20334   100%     -    0s
H    0     0                    949996.00000 7447.03197  99.2%     -    0s
     0     0 7447.03197    0  168 949996.000 7447.03197  99.2%     -    0s
H    0     0                    931156.00000 7447.03197  99.2%     -    0s
H    0     0                    931148.00000 7447.03197  99.2%     -    0s
H    0     0                    324316.00000 7447.03197  97.7%     -    0s
     0     0 7554.37743    0  173 324316.000 7554.37743  97.7%     -    0s
H    0     0                    324300.00000 7554.37743  97.7%     -    0s
H    0     0                    308740.00000 7556.04447  97.6%     -    0s
     0     0 7556.04447    0  162 308740.000 7556.04447  97.6%     -    0s
     0     0 7556.05002    0  165 308740.000 7556.05002  97.6%     -    0s
     0     0 7862.76772    0  217 308740.000 7862.76772  97.5%     -    0s
H    0     0                    298604.00000 7862.76772  97.4%     -    0s
     0     0 8028.71049    0  220 298604.000 8028.71049  97.3%     -    0s
H    0     0                    298580.00000 8164.78382  97.3%     -    0s
     0     0 8164.78382    0  226 298580.000 8164.78382  97.3%     -    0s
     0     0 8164.84569    0  227 298580.000 8164.84569  97.3%     -    0s
H    0     0                    268940.00000 8164.84569  97.0%     -    0s
H    0     0                    268932.00000 8164.84569  97.0%     -    0s
H    0     0                    268900.00000 8486.53606  96.8%     -    0s
     0     0 8486.53606    0  244 268900.000 8486.53606  96.8%     -    0s
H    0     0                    268876.00000 8486.53606  96.8%     -    0s
     0     0 8508.56113    0  254 268876.000 8508.56113  96.8%     -    0s
     0     0 8522.55266    0  256 268876.000 8522.55266  96.8%     -    0s
     0     0 8523.16876    0  255 268876.000 8523.16876  96.8%     -    0s
     0     0 8523.50001    0  256 268876.000 8523.50001  96.8%     -    0s
H    0     0                    146356.00000 8951.73157  93.9%     -    1s
     0     0 8951.73157    0  234 146356.000 8951.73157  93.9%     -    1s
H    0     0                    146324.00000 8951.73157  93.9%     -    1s
H    0     0                    146276.00000 8951.73157  93.9%     -    1s
     0     0 8973.68020    0  237 146276.000 8973.68020  93.9%     -    1s
     0     0 8975.71006    0  243 146276.000 8975.71006  93.9%     -    1s
     0     0 8975.92621    0  242 146276.000 8975.92621  93.9%     -    1s
     0     0 9306.35931    0  215 146276.000 9306.35931  93.6%     -    1s
H    0     0                    115524.00000 9306.35931  91.9%     -    1s
     0     0 9407.62105    0  262 115524.000 9407.62105  91.9%     -    1s
     0     0 9416.45181    0  253 115524.000 9416.45181  91.8%     -    1s
     0     0 9417.56555    0  255 115524.000 9417.56555  91.8%     -    1s
     0     0 9729.04965    0  261 115524.000 9729.04965  91.6%     -    1s
     0     0 9729.04965    0  119 115524.000 9729.04965  91.6%     -    1s
H    0     0                    98700.000000 9729.04965  90.1%     -    1s
H    0     0                    92380.000000 9729.04965  89.5%     -    1s
H    0     0                    92340.000000 9729.04965  89.5%     -    1s
     0     0 9729.04965    0  171 92340.0000 9729.04965  89.5%     -    1s
     0     0 9729.04965    0  218 92340.0000 9729.04965  89.5%     -    1s
     0     0 9729.04965    0  216 92340.0000 9729.04965  89.5%     -    1s
     0     0 9758.52700    0  238 92340.0000 9758.52700  89.4%     -    1s
     0     0 9791.31476    0  238 92340.0000 9791.31476  89.4%     -    1s
     0     0 9792.23502    0  235 92340.0000 9792.23502  89.4%     -    1s
     0     0 9792.42201    0  239 92340.0000 9792.42201  89.4%     -    1s
     0     0 9911.48866    0  249 92340.0000 9911.48866  89.3%     -    1s
     0     0 9952.22214    0  239 92340.0000 9952.22214  89.2%     -    1s
     0     0 9958.78507    0  258 92340.0000 9958.78507  89.2%     -    1s
     0     0 9958.81623    0  256 92340.0000 9958.81623  89.2%     -    1s
     0     0 10384.2204    0  266 92340.0000 10384.2204  88.8%     -    2s
     0     0 10507.7817    0  284 92340.0000 10507.7817  88.6%     -    2s
     0     0 10525.6274    0  283 92340.0000 10525.6274  88.6%     -    2s
     0     0 10528.8542    0  286 92340.0000 10528.8542  88.6%     -    2s
     0     0 10530.4923    0  288 92340.0000 10530.4923  88.6%     -    2s
     0     0 11206.2010    0  275 92340.0000 11206.2010  87.9%     -    2s
     0     0 11416.8883    0  287 92340.0000 11416.8883  87.6%     -    2s
     0     0 11509.0141    0  289 92340.0000 11509.0141  87.5%     -    2s
     0     0 11541.1358    0  300 92340.0000 11541.1358  87.5%     -    2s
     0     0 11545.8784    0  306 92340.0000 11545.8784  87.5%     -    2s
     0     0 11546.2927    0  308 92340.0000 11546.2927  87.5%     -    2s
     0     0 11633.3671    0  312 92340.0000 11633.3671  87.4%     -    2s
     0     0 11656.6546    0  330 92340.0000 11656.6546  87.4%     -    2s
     0     0 11665.5609    0  306 92340.0000 11665.5609  87.4%     -    2s
     0     0 11666.2310    0  324 92340.0000 11666.2310  87.4%     -    2s
H    0     0                    43372.000000 11666.2310  73.1%     -    2s
     0     0 11697.2302    0  321 43372.0000 11697.2302  73.0%     -    2s
H    0     0                    43332.000000 11697.2302  73.0%     -    2s
H    0     0                    43268.000000 11697.2302  73.0%     -    2s
     0     0 11708.6787    0  334 43268.0000 11708.6787  72.9%     -    2s
     0     0 11711.3942    0  337 43268.0000 11711.3942  72.9%     -    2s
     0     0 11727.0005    0  344 43268.0000 11727.0005  72.9%     -    2s
     0     0 11727.0005    0  331 43268.0000 11727.0005  72.9%     -    2s
H    0     0                    42980.000000 11727.0005  72.7%     -    2s
H    0     0                    37036.000000 11729.9608  68.3%     -    3s
     0     2 11729.9608    0  328 37036.0000 11729.9608  68.3%     -    3s
H   31    40                    37012.000000 12239.1342  66.9%  1058    3s
H   69    76                    32580.000000 12319.3385  62.2%   924    4s
H  105   113                    24732.000000 12319.3385  50.2%   846    4s
H  144   140                    22140.000000 12319.3385  44.4%   782    4s
   168   160     cutoff   20      22140.0000 12319.3385  44.4%   784    5s
H  192   173                    22124.000000 12541.7163  43.3%   748    5s
H  280   220                    22068.000000 12541.7163  43.2%   705    5s
H  291   220                    17340.000000 12541.7163  27.7%   710    5s
H  294   204                    17284.000000 12744.8944  26.3%   711    5s
H  298   204                    17076.000000 12744.8944  25.4%   707    5s
H  329   206                    17060.000000 12744.8944  25.3%   661    5s
*  617   282              59    16988.000000 12744.8944  25.0%   488    6s
H  700   312                    16980.000000 13517.5309  20.4%   454    7s
H  825   323                    16740.000000 13718.4481  18.0%   439    7s
H  982   311                    16564.000000 14387.7603  13.1%   409    7s

Cutting planes:
  Cover: 22
  Clique: 125
  MIR: 165
  StrongCG: 83
  GUB cover: 109
  Zero half: 27
  RLT: 10

Explored 1343 nodes (471951 simplex iterations) in 7.96 seconds (17.16 work units)
Thread count was 8 (of 8 available processors)

Solution count 10: 16564 16740 16980 ... 22124

Optimal solution found (tolerance 1.00e-04)
Best objective 1.656400000000e+04, best bound 1.656400000000e+04, gap 0.0000%

Gurobi 9.5.2 (mac64[arm]) logging started Mon Apr 24 17:22:58 2023

Set parameter LogFile to value "Java/output/iterative_model/scenario_seed_4_nJob_40_machineCount_1/mip_increment_2/log.txt"
Gurobi Optimizer version 9.5.2 build v9.5.2rc0 (mac64[arm])
Thread count: 8 physical cores, 8 logical processors, using up to 8 threads
Optimize a model with 984 rows, 2431 columns and 17130 nonzeros
Model fingerprint: 0x4ea6fae7
Variable types: 0 continuous, 2431 integer (2431 binary)
Coefficient statistics:
  Matrix range     [1e+00, 3e+02]
  Objective range  [2e+02, 2e+05]
  Bounds range     [1e+00, 1e+00]
  RHS range        [1e+00, 1e+00]
Presolve removed 555 rows and 323 columns
Presolve time: 0.02s
Presolved: 429 rows, 2108 columns, 14649 nonzeros
Variable types: 0 continuous, 2108 integer (2106 binary)

Root relaxation: objective 5.875291e+03, 1637 iterations, 0.03 seconds (0.05 work units)

    Nodes    |    Current Node    |     Objective Bounds      |     Work
 Expl Unexpl |  Obj  Depth IntInf | Incumbent    BestBd   Gap | It/Node Time

     0     0 5875.29101    0  101          - 5875.29101      -     -    0s
H    0     0                    291872.00000 5875.29101  98.0%     -    0s
H    0     0                    188370.00000 5875.29101  96.9%     -    0s
H    0     0                    82388.000000 5875.29101  92.9%     -    0s
     0     0 5954.28912    0  137 82388.0000 5954.28912  92.8%     -    0s
     0     0 5964.20332    0  137 82388.0000 5964.20332  92.8%     -    0s
     0     0 5964.51229    0  135 82388.0000 5964.51229  92.8%     -    0s
     0     0 6416.37674    0  169 82388.0000 6416.37674  92.2%     -    0s
H    0     0                    54638.000000 6416.37674  88.3%     -    0s
     0     0 6542.86901    0  173 54638.0000 6542.86901  88.0%     -    0s
     0     0 6564.06378    0  177 54638.0000 6564.06378  88.0%     -    0s
     0     0 6568.92694    0  182 54638.0000 6568.92694  88.0%     -    0s
     0     0 6569.21558    0  182 54638.0000 6569.21558  88.0%     -    0s
     0     0 7170.30605    0  211 54638.0000 7170.30605  86.9%     -    0s
H    0     0                    52470.000000 7170.30605  86.3%     -    0s
H    0     0                    41656.000000 7170.30605  82.8%     -    0s
H    0     0                    21550.000000 7170.30605  66.7%     -    0s
     0     0 7294.10981    0  196 21550.0000 7294.10981  66.2%     -    0s
     0     0 7320.38391    0  198 21550.0000 7320.38391  66.0%     -    0s
     0     0 7328.22808    0  207 21550.0000 7328.22808  66.0%     -    0s
     0     0 7328.70454    0  206 21550.0000 7328.70454  66.0%     -    0s
     0     0 8431.25297    0  218 21550.0000 8431.25297  60.9%     -    0s
     0     0 8431.25297    0   99 21550.0000 8431.25297  60.9%     -    0s
H    0     0                    21026.000000 8431.25297  59.9%     -    0s
H    0     0                    13490.000000 8431.25297  37.5%     -    0s
     0     0 8431.25297    0  180 13490.0000 8431.25297  37.5%     -    0s
     0     0 8431.25297    0  184 13490.0000 8431.25297  37.5%     -    0s
     0     0 8528.93399    0  213 13490.0000 8528.93399  36.8%     -    0s
     0     0 8543.65673    0  203 13490.0000 8543.65673  36.7%     -    0s
     0     0 8551.39693    0  202 13490.0000 8551.39693  36.6%     -    0s
     0     0 8552.29247    0  208 13490.0000 8552.29247  36.6%     -    0s
     0     0 8552.29475    0  209 13490.0000 8552.29475  36.6%     -    0s
     0     0 8887.22207    0  221 13490.0000 8887.22207  34.1%     -    0s
     0     0 8931.33394    0  223 13490.0000 8931.33394  33.8%     -    0s
     0     0 8936.79098    0  232 13490.0000 8936.79098  33.8%     -    0s
     0     0 8937.42473    0  236 13490.0000 8937.42473  33.7%     -    0s
     0     0 9282.38194    0  240 13490.0000 9282.38194  31.2%     -    0s
     0     0 9291.67079    0  239 13490.0000 9291.67079  31.1%     -    0s
     0     0 9293.33672    0  243 13490.0000 9293.33672  31.1%     -    0s
     0     0 9416.97383    0  252 13490.0000 9416.97383  30.2%     -    0s
     0     0 9457.67687    0  259 13490.0000 9457.67687  29.9%     -    0s
     0     0 9474.52454    0  256 13490.0000 9474.52454  29.8%     -    0s
     0     0 9476.64643    0  268 13490.0000 9476.64643  29.8%     -    0s
     0     0 9554.41052    0  266 13490.0000 9554.41052  29.2%     -    0s
     0     0 9607.12748    0  262 13490.0000 9607.12748  28.8%     -    0s
     0     0 9616.70821    0  269 13490.0000 9616.70821  28.7%     -    0s
     0     0 9619.08327    0  264 13490.0000 9619.08327  28.7%     -    0s
     0     0 9726.13051    0  268 13490.0000 9726.13051  27.9%     -    0s
     0     0 9767.59072    0  265 13490.0000 9767.59072  27.6%     -    0s
     0     0 9780.15969    0  266 13490.0000 9780.15969  27.5%     -    0s
     0     0 9795.48753    0  270 13490.0000 9795.48753  27.4%     -    0s
     0     0 9796.46832    0  278 13490.0000 9796.46832  27.4%     -    0s
     0     0 9930.34288    0  266 13490.0000 9930.34288  26.4%     -    0s
     0     0 10035.7117    0  281 13490.0000 10035.7117  25.6%     -    0s
     0     0 10048.0691    0  289 13490.0000 10048.0691  25.5%     -    0s
     0     0 10053.7387    0  282 13490.0000 10053.7387  25.5%     -    0s
     0     0 10055.1659    0  285 13490.0000 10055.1659  25.5%     -    0s
     0     0 10269.1902    0  287 13490.0000 10269.1902  23.9%     -    1s
     0     0 10321.8011    0  282 13490.0000 10321.8011  23.5%     -    1s
     0     0 10336.9567    0  284 13490.0000 10336.9567  23.4%     -    1s
     0     0 10340.6231    0  299 13490.0000 10340.6231  23.3%     -    1s
     0     0 10476.2798    0  292 13490.0000 10476.2798  22.3%     -    1s
     0     0 10504.9315    0  289 13490.0000 10504.9315  22.1%     -    1s
     0     0 10514.5351    0  295 13490.0000 10514.5351  22.1%     -    1s
     0     0 10516.4265    0  289 13490.0000 10516.4265  22.0%     -    1s
     0     0 10555.2449    0  293 13490.0000 10555.2449  21.8%     -    1s
     0     0 10569.4198    0  316 13490.0000 10569.4198  21.6%     -    1s
     0     0 10577.5239    0  314 13490.0000 10577.5239  21.6%     -    1s
     0     0 10582.6900    0  319 13490.0000 10582.6900  21.6%     -    1s
     0     0 10604.0610    0  295 13490.0000 10604.0610  21.4%     -    1s
     0     0 10604.0610    0  291 13490.0000 10604.0610  21.4%     -    1s
     0     0 10608.5506    0   96 13490.0000 10608.5506  21.4%     -    1s
     0     0 10608.5506    0  174 13490.0000 10608.5506  21.4%     -    1s
     0     0 10608.5506    0  208 13490.0000 10608.5506  21.4%     -    1s
     0     0 10608.5506    0  229 13490.0000 10608.5506  21.4%     -    1s
     0     0 10608.5506    0  237 13490.0000 10608.5506  21.4%     -    1s
     0     0 10608.5506    0  272 13490.0000 10608.5506  21.4%     -    1s
     0     0 10629.6883    0  274 13490.0000 10629.6883  21.2%     -    1s
     0     0 10631.2923    0  274 13490.0000 10631.2923  21.2%     -    1s
     0     0 10631.8078    0  282 13490.0000 10631.8078  21.2%     -    1s
     0     0 10631.8263    0  286 13490.0000 10631.8263  21.2%     -    1s
     0     0 10650.9866    0  274 13490.0000 10650.9866  21.0%     -    1s
     0     0 10655.8536    0  282 13490.0000 10655.8536  21.0%     -    1s
     0     0 10688.3342    0  306 13490.0000 10688.3342  20.8%     -    1s
     0     0 10688.3342    0  306 13490.0000 10688.3342  20.8%     -    1s
     0     2 10694.3128    0  303 13490.0000 10694.3128  20.7%     -    1s
*  114    61              17    13396.000000 11456.5632  14.5%   204    2s
*  126    58              15    13338.000000 11546.9842  13.4%   199    2s
H  249    68                    13120.000000 11778.5627  10.2%   160    2s

Cutting planes:
  Clique: 58
  MIR: 90
  StrongCG: 31
  GUB cover: 39
  Inf proof: 3
  Zero half: 4
  Mod-K: 1

Explored 450 nodes (77225 simplex iterations) in 2.37 seconds (3.99 work units)
Thread count was 8 (of 8 available processors)

Solution count 10: 13120 13338 13396 ... 54638

Optimal solution found (tolerance 1.00e-04)
Best objective 1.312000000000e+04, best bound 1.312000000000e+04, gap 0.0000%

Gurobi 9.5.2 (mac64[arm]) logging started Mon Apr 24 17:23:00 2023

Set parameter LogFile to value "Java/output/iterative_model/scenario_seed_4_nJob_40_machineCount_1/mip_increment_2/log.txt"
Gurobi Optimizer version 9.5.2 build v9.5.2rc0 (mac64[arm])
Thread count: 8 physical cores, 8 logical processors, using up to 8 threads
Optimize a model with 2040 rows, 36533 columns and 426942 nonzeros
Model fingerprint: 0x4c45fabd
Variable types: 0 continuous, 36533 integer (36533 binary)
Coefficient statistics:
  Matrix range     [1e+00, 3e+02]
  Objective range  [5e+00, 9e+06]
  Bounds range     [1e+00, 1e+00]
  RHS range        [1e+00, 1e+00]

Warning: Completing partial solution with 36414 unfixed non-continuous variables out of 36533
User MIP start produced solution with objective 22055 (0.03s)
Loaded user MIP start with objective 22055

Presolve removed 36 rows and 2850 columns
Presolve time: 0.47s
Presolved: 2004 rows, 33683 columns, 387964 nonzeros
Variable types: 0 continuous, 33683 integer (33657 binary)

Root simplex log...

Iteration    Objective       Primal Inf.    Dual Inf.      Time
   36305    1.9113532e+04   1.996637e+06   0.000000e+00      5s
   39820    1.9130426e+04   0.000000e+00   0.000000e+00      6s

Root relaxation: objective 1.913043e+04, 39820 iterations, 5.07 seconds (12.52 work units)

    Nodes    |    Current Node    |     Objective Bounds      |     Work
 Expl Unexpl |  Obj  Depth IntInf | Incumbent    BestBd   Gap | It/Node Time

     0     0 19130.4256    0  333 22055.0000 19130.4256  13.3%     -    5s
H    0     0                    21906.000000 19130.4256  12.7%     -    6s
H    0     0                    21843.000000 19164.3759  12.3%     -    8s
     0     0 19164.3759    0  620 21843.0000 19164.3759  12.3%     -    8s
H    0     0                    21778.000000 19164.3759  12.0%     -    8s
     0     0 19166.4328    0  636 21778.0000 19166.4328  12.0%     -    9s
     0     0 19166.4547    0  621 21778.0000 19166.4547  12.0%     -    9s
     0     0 19166.4547    0  620 21778.0000 19166.4547  12.0%     -    9s
     0     0 19192.4634    0  684 21778.0000 19192.4634  11.9%     -   12s
     0     0 19192.4634    0  387 21778.0000 19192.4634  11.9%     -   16s
H    0     0                    21772.000000 19192.4634  11.8%     -   16s
H    0     0                    21711.000000 19192.4634  11.6%     -   17s
H    0     0                    21691.000000 19192.4634  11.5%     -   18s
     0     0 19192.4634    0  658 21691.0000 19192.4634  11.5%     -   18s
     0     0 19210.3815    0  700 21691.0000 19210.3815  11.4%     -   21s
     0     0 19211.7424    0  712 21691.0000 19211.7424  11.4%     -   21s
     0     0 19211.8616    0  722 21691.0000 19211.8616  11.4%     -   21s
     0     0 19211.8738    0  714 21691.0000 19211.8738  11.4%     -   21s
     0     0 19236.5671    0  717 21691.0000 19236.5671  11.3%     -   25s
H    0     0                    21651.000000 19236.5671  11.2%     -   25s
     0     0 19259.2945    0  817 21651.0000 19259.2945  11.0%     -   29s
     0     0 19264.9688    0  855 21651.0000 19264.9688  11.0%     -   30s
H    0     0                    21541.000000 19264.9688  10.6%     -   31s
     0     0 19266.4601    0  849 21541.0000 19266.4601  10.6%     -   31s
     0     0 19266.8656    0  852 21541.0000 19266.8656  10.6%     -   31s
     0     0 19266.8685    0  851 21541.0000 19266.8685  10.6%     -   31s
     0     0 19291.9200    0  924 21541.0000 19291.9200  10.4%     -   35s
H    0     0                    21501.000000 19291.9200  10.3%     -   37s
     0     0 19295.6641    0  939 21501.0000 19295.6641  10.3%     -   37s
     0     0 19300.6442    0  956 21501.0000 19300.6442  10.2%     -   40s
     0     0 19301.4629    0  958 21501.0000 19301.4629  10.2%     -   41s
     0     0 19301.5747    0  961 21501.0000 19301.5747  10.2%     -   41s
     0     0 19301.5784    0  959 21501.0000 19301.5784  10.2%     -   41s
H    0     0                    21491.000000 19301.5784  10.2%     -   46s
     0     0 19321.6386    0  986 21491.0000 19321.6386  10.1%     -   46s
H    0     0                    21483.000000 19321.6386  10.1%     -   46s
     0     0 19331.1141    0 1037 21483.0000 19331.1141  10.0%     -   50s
     0     0 19332.4063    0 1027 21483.0000 19332.4063  10.0%     -   51s
     0     0 19332.8392    0 1050 21483.0000 19332.8392  10.0%     -   52s
     0     0 19333.0370    0 1064 21483.0000 19333.0370  10.0%     -   53s
     0     0 19333.0810    0 1074 21483.0000 19333.0810  10.0%     -   53s
H    0     0                    21415.000000 19333.0810  9.72%     -   58s
     0     0 19357.5620    0 1045 21415.0000 19357.5620  9.61%     -   58s
H    0     0                    21411.000000 19357.5620  9.59%     -   59s
     0     0 19367.5742    0 1076 21411.0000 19367.5742  9.54%     -   63s
     0     0 19369.4746    0 1090 21411.0000 19369.4746  9.53%     -   66s
     0     0 19369.7016    0 1090 21411.0000 19369.7016  9.53%     -   67s
     0     0 19369.7753    0 1094 21411.0000 19369.7753  9.53%     -   67s
     0     0 19386.4039    0 1119 21411.0000 19386.4039  9.46%     -   71s
H    0     0                    21407.000000 19386.4039  9.44%     -   71s
     0     0 19391.0636    0 1163 21407.0000 19391.0636  9.42%     -   73s
     0     0 19394.1165    0 1202 21407.0000 19394.1165  9.40%     -   75s
     0     0 19394.7400    0 1218 21407.0000 19394.7400  9.40%     -   76s
     0     0 19394.9680    0 1231 21407.0000 19394.9680  9.40%     -   77s
     0     0 19395.0527    0 1240 21407.0000 19395.0527  9.40%     -   77s
     0     0 19407.9971    0 1213 21407.0000 19407.9971  9.34%     -   81s
     0     0 19412.3852    0 1223 21407.0000 19412.3852  9.32%     -   84s
     0     0 19415.1277    0 1289 21407.0000 19415.1277  9.30%     -   86s
     0     0 19415.8393    0 1295 21407.0000 19415.8393  9.30%     -   87s
     0     0 19416.3381    0 1299 21407.0000 19416.3381  9.30%     -   88s
     0     0 19416.3739    0 1308 21407.0000 19416.3739  9.30%     -   89s
     0     0 19426.7595    0 1324 21407.0000 19426.7595  9.25%     -   92s
H    0     0                    21386.000000 19426.7595  9.16%     -   93s
     0     0 19430.8558    0 1307 21386.0000 19430.8558  9.14%     -   96s
     0     0 19431.7313    0 1352 21386.0000 19431.7313  9.14%     -   97s
     0     0 19432.0108    0 1354 21386.0000 19432.0108  9.14%     -   99s
     0     0 19432.0861    0 1337 21386.0000 19432.0861  9.14%     -   99s
     0     0 19436.1094    0 1320 21386.0000 19436.1094  9.12%     -  101s
     0     0 19439.1709    0 1332 21386.0000 19439.1709  9.10%     -  104s
     0     0 19440.9458    0 1356 21386.0000 19440.9458  9.09%     -  106s
     0     0 19441.7968    0 1384 21386.0000 19441.7968  9.09%     -  107s
     0     0 19441.9835    0 1393 21386.0000 19441.9835  9.09%     -  108s
     0     0 19447.5884    0 1359 21386.0000 19447.5884  9.06%     -  112s
     0     0 19449.5623    0 1380 21386.0000 19449.5623  9.05%     -  114s
     0     0 19451.3857    0 1394 21386.0000 19451.3857  9.05%     -  117s
     0     0 19452.0136    0 1427 21386.0000 19452.0136  9.04%     -  118s
     0     0 19452.9720    0 1436 21386.0000 19452.9720  9.04%     -  119s
     0     0 19453.7965    0 1439 21386.0000 19453.7965  9.03%     -  120s
     0     0 19453.8996    0 1457 21386.0000 19453.8996  9.03%     -  121s
H    0     0                    21327.000000 19453.8996  8.78%     -  125s
     0     0 19462.6415    0 1439 21327.0000 19462.6415  8.74%     -  125s
     0     0 19465.1164    0 1449 21327.0000 19465.1164  8.73%     -  132s
     0     0 19465.8720    0 1462 21327.0000 19465.8720  8.73%     -  134s
     0     0 19466.0726    0 1456 21327.0000 19466.0726  8.73%     -  135s
     0     0 19471.1637    0 1471 21327.0000 19471.1637  8.70%     -  138s
     0     0 19473.0413    0 1463 21327.0000 19473.0413  8.69%     -  140s
H    0     0                    21323.000000 19473.0413  8.68%     -  141s
     0     0 19474.2651    0 1481 21323.0000 19474.2651  8.67%     -  141s
     0     0 19474.5638    0 1511 21323.0000 19474.5638  8.67%     -  142s
     0     0 19477.7901    0 1480 21323.0000 19477.7901  8.65%     -  145s
     0     0 19478.8947    0 1503 21323.0000 19478.8947  8.65%     -  152s
     0     0 19479.8326    0 1528 21323.0000 19479.8326  8.64%     -  153s
     0     0 19480.3519    0 1555 21323.0000 19480.3519  8.64%     -  154s
H    0     0                    21319.000000 19480.3519  8.62%     -  155s
     0     0 19480.6189    0 1562 21319.0000 19480.6189  8.62%     -  155s
     0     0 19484.7341    0 1519 21319.0000 19484.7341  8.60%     -  158s
     0     0 19486.9502    0 1519 21319.0000 19486.9502  8.59%     -  160s
     0     0 19487.9449    0 1538 21319.0000 19487.9449  8.59%     -  162s
     0     0 19488.4856    0 1548 21319.0000 19488.4856  8.59%     -  163s
     0     0 19488.7404    0 1557 21319.0000 19488.7404  8.59%     -  164s
     0     0 19495.2679    0 1570 21319.0000 19495.2679  8.55%     -  168s
     0     0 19497.2320    0 1550 21319.0000 19497.2320  8.55%     -  177s
     0     0 19498.3311    0 1577 21319.0000 19498.3311  8.54%     -  179s
     0     0 19498.9241    0 1607 21319.0000 19498.9241  8.54%     -  180s
     0     0 19499.0489    0 1616 21319.0000 19499.0489  8.54%     -  180s
     0     0 19505.1255    0 1590 21319.0000 19505.1255  8.51%     -  184s
     0     0 19506.0839    0 1590 21319.0000 19506.0839  8.50%     -  186s
     0     0 19506.6920    0 1606 21319.0000 19506.6920  8.50%     -  187s
H    0     0                    21310.000000 19506.6920  8.46%     -  187s
     0     0 19506.8098    0 1627 21310.0000 19506.8098  8.46%     -  187s
     0     0 19510.6542    0 1634 21310.0000 19510.6542  8.44%     -  191s
     0     0 19512.4357    0 1642 21310.0000 19512.4357  8.44%     -  193s
H    0     0                    21306.000000 19512.4357  8.42%     -  194s
     0     0 19513.0385    0 1680 21306.0000 19513.0385  8.42%     -  194s
     0     0 19513.2540    0 1679 21306.0000 19513.2540  8.41%     -  195s
     0     0 19516.7790    0 1620 21306.0000 19516.7790  8.40%     -  198s
H    0     0                    21278.000000 19516.7790  8.28%     -  198s
     0     0 19518.3475    0 1654 21278.0000 19518.3475  8.27%     -  200s
     0     0 19519.6374    0 1657 21278.0000 19519.6374  8.26%     -  202s
     0     0 19520.3471    0 1652 21278.0000 19520.3471  8.26%     -  203s
     0     0 19520.6479    0 1655 21278.0000 19520.6479  8.26%     -  203s
     0     0 19522.9211    0 1662 21278.0000 19522.9211  8.25%     -  206s
     0     0 19523.6505    0 1701 21278.0000 19523.6505  8.24%     -  207s
     0     0 19523.9921    0 1716 21278.0000 19523.9921  8.24%     -  208s
     0     0 19526.0894    0 1718 21278.0000 19526.0894  8.23%     -  211s
     0     0 19526.0894    0 1713 21278.0000 19526.0894  8.23%     -  212s
     0     2 19526.0916    0 1701 21278.0000 19526.0916  8.23%     -  243s
     1     4 19613.6806    1 1489 21278.0000 19526.0916  8.23% 23917  255s
     3     8 19659.0366    2 1439 21278.0000 19526.5377  8.23% 14379  267s
     7    16 19742.2198    3 1459 21278.0000 19528.2680  8.22% 16131  289s
    15    24 19785.8264    4 1482 21278.0000 19534.3855  8.19% 21275  315s
    23    32 19976.6902    4 1372 21278.0000 19534.3855  8.19% 21372  334s
    31    40 19825.7234    5 1456 21278.0000 19540.2627  8.17% 19450  349s
    39    48 19930.5697    5 1322 21278.0000 19540.2627  8.17% 18343  372s
    47    57 19850.0818    6 1444 21278.0000 19557.8277  8.08% 17778  385s
    56    65 19939.5134    6 1369 21278.0000 19557.8277  8.08% 16881  415s
    64    75 19894.4956    7 1448 21278.0000 19560.7552  8.07% 16434  431s
H   69    75                    21272.000000 19560.7552  8.04% 16213  431s
    74    83 20460.5497    7 1192 21272.0000 19560.7552  8.04% 16554  464s
    82    94 19901.2927    8 1412 21272.0000 19562.1974  8.04% 15765  489s
    93   102 19909.7107    9 1391 21272.0000 19562.1974  8.04% 15393  512s
H  103   115                    21271.000000 19562.3946  8.03% 15551  533s
H  108   115                    21270.000000 19562.3946  8.03% 15642  533s
   116   128 20181.4896   11 1328 21270.0000 19562.3946  8.03% 15202  555s
   129   134 infeasible   12      21270.0000 19562.3946  8.03% 14656  565s

Cutting planes:
  Gomory: 1
  Cover: 29
  Clique: 401
  MIR: 631
  StrongCG: 363
  GUB cover: 263
  Inf proof: 5
  Zero half: 16
  RLT: 6

Explored 137 nodes (2468766 simplex iterations) in 565.01 seconds (1840.86 work units)
Thread count was 8 (of 8 available processors)

Solution count 10: 21270 21271 21272 ... 21386

Time limit reached
Best objective 2.127000000000e+04, best bound 1.956300000000e+04, gap 8.0254%
